6 24 4 10
18 13 6 8 15 1 17 3 5 11 15 1 1 3 9 19 15 20 8 3 16 20 9 1 
12.79 13.3 8.51 7.27 5.22 7.86 8.75 6.44 15.29 11.99 8.29 4.03 12.75 10.88 2.77 0.4 15.42 7.55 3.98 4.94 11.99 5.26 2.96 14.26 
10.97 13.52 7.34 10.16 2.77 10.68 15.51 13.45 4.96 0.96 0.5 1.81 7.17 1.61 8.77 10.3 0.04 1.21 8.28 14.43 15.96 5.6 2.28 3.41 
8.73 15.16 9.13 4.58 1.55 15.56 5.65 13.07 12.7 6.41 12.49 11.57 5.71 0.97 13.54 7.66 11.69 7.04 15.18 5.51 15.88 6.23 3.39 5.35 
7.98 10.5 11.69 11.35 7.89 3.12 7.84 13.62 10.01 9.73 12.4 0.43 9.32 1.65 6.82 13.46 6.9 7.45 7.44 8.72 3.21 5.73 13.61 4.42 
8 8 8 8 8 8 8 8 8 8 8 8 8 8 8 8 8 8 8 8 8 8 8 8 
4.9 13.89 11.1 9.96 10.65 4.73 15.32 3.59 15.3 15.81 15.99 1.82 3.67 6.37 3.01 1.25 10.4 2.34 12.77 0.38 5.38 7.15 8.64 4.91 
1 1 1 1 1 1 1 1 1 1 1 1 1 1 1 1 1 1 1 1 1 1 1 1 
1 1 1 1 1 1 1 1 1 1 1 1 1 1 1 1 1 1 1 1 1 1 1 1 
1 1 1 1 1 1 1 1 1 1 1 1 1 1 1 1 1 1 1 1 1 1 1 1 
1 1 1 1 1 1 1 1 1 1 1 1 1 1 1 1 1 1 1 1 1 1 1 1 
1 1 1 1 1 1 1 1 1 1 1 1 1 1 1 1 1 1 1 1 1 1 1 1 
1 1 1 1 1 1 1 1 1 1 1 1 1 1 1 1 1 1 1 1 1 1 1 1 
0.01 0.01 0.01 0.01 0.01 0.01 0.01 0.01 0.01 0.01 0.01 0.01 0.01 0.01 0.01 0.01 0.01 0.01 0.01 0.01 0.01 0.01 0.01 0.01 
0.02 0.02 0.02 0.02 0.02 0.02 0.02 0.02 0.02 0.02 0.02 0.02 0.02 0.02 0.02 0.02 0.02 0.02 0.02 0.02 0.02 0.02 0.02 0.02 
0.03 0.03 0.03 0.03 0.03 0.03 0.03 0.03 0.03 0.03 0.03 0.03 0.03 0.03 0.03 0.03 0.03 0.03 0.03 0.03 0.03 0.03 0.03 0.03 
0.04 0.04 0.04 0.04 0.04 0.04 0.04 0.04 0.04 0.04 0.04 0.04 0.04 0.04 0.04 0.04 0.04 0.04 0.04 0.04 0.04 0.04 0.04 0.04 
0.05 0.05 0.05 0.05 0.05 0.05 0.05 0.05 0.05 0.05 0.05 0.05 0.05 0.05 0.05 0.05 0.05 0.05 0.05 0.05 0.05 0.05 0.05 0.05 
1 1 1 1 1 1 1 1 1 1 1 1 1 1 1 1 1 1 1 1 1 1 1 1 
